data/results/Amazonas/Amazonas_k_1.sol
# Solution for model gnl_amazon
# Objective value = 4.0172191571880005e+10
b[0,0] 0
b[0,1] 0
b[0,2] 0
b[0,3] 0
b[0,4] 0
b[0,5] 0
b[0,6] 1
b[0,7] 0
b[0,8] 0
b[0,9] 0
b[0,10] 0
b[0,11] 0
b[0,12] 0
b[0,13] 0
b[0,14] 0
b[0,15] 0
b[0,16] 0
b[0,17] 0
b[0,18] 0
b[0,19] 0
b[0,20] 0
b[0,21] 0
b[0,22] 0
b[0,23] 0
b[0,24] 0
b[0,25] 0
b[0,26] 0
b[0,27] 0
b[1,0] 0
b[1,1] 0
b[1,2] 0
b[1,3] 0
b[1,4] 0
b[1,5] 1
b[1,6] 0
b[1,7] 0
b[1,8] 0
b[1,9] 0
b[1,10] 0
b[1,11] 0
b[1,12] 0
b[1,13] 0
b[1,14] 0
b[1,15] 0
b[1,16] 0
b[1,17] 0
b[1,18] 0
b[1,19] 0
b[1,20] 0
b[1,21] 0
b[1,22] 0
b[1,23] 0
b[1,24] 0
b[1,25] 0
b[1,26] 0
b[1,27] 0
b[2,0] 0
b[2,1] 0
b[2,2] 0
b[2,3] 0
b[2,4] 0
b[2,5] 1
b[2,6] 0
b[2,7] 0
b[2,8] 0
b[2,9] 0
b[2,10] 0
b[2,11] 0
b[2,12] 0
b[2,13] 0
b[2,14] 0
b[2,15] 0
b[2,16] 0
b[2,17] 0
b[2,18] 0
b[2,19] 0
b[2,20] 0
b[2,21] 0
b[2,22] 0
b[2,23] 0
b[2,24] 0
b[2,25] 0
b[2,26] 0
b[2,27] 0
b[3,0] 0
b[3,1] 0
b[3,2] 0
b[3,3] 0
b[3,4] 0
b[3,5] 1
b[3,6] 0
b[3,7] 0
b[3,8] 0
b[3,9] 0
b[3,10] 0
b[3,11] 0
b[3,12] 0
b[3,13] 0
b[3,14] 0
b[3,15] 0
b[3,16] 0
b[3,17] 0
b[3,18] 0
b[3,19] 0
b[3,20] 0
b[3,21] 0
b[3,22] 0
b[3,23] 0
b[3,24] 0
b[3,25] 0
b[3,26] 0
b[3,27] 0
b[4,0] 0
b[4,1] 0
b[4,2] 0
b[4,3] 0
b[4,4] 0
b[4,5] 1
b[4,6] 0
b[4,7] 0
b[4,8] 0
b[4,9] 0
b[4,10] 0
b[4,11] 0
b[4,12] 0
b[4,13] 0
b[4,14] 0
b[4,15] 0
b[4,16] 0
b[4,17] 0
b[4,18] 0
b[4,19] 0
b[4,20] 0
b[4,21] 0
b[4,22] 0
b[4,23] 0
b[4,24] 0
b[4,25] 0
b[4,26] 0
b[4,27] 0
b[5,0] 0
b[5,1] 0
b[5,2] 0
b[5,3] 0
b[5,4] 0
b[5,5] 1
b[5,6] 0
b[5,7] 0
b[5,8] 0
b[5,9] 0
b[5,10] 0
b[5,11] 0
b[5,12] 0
b[5,13] 0
b[5,14] 0
b[5,15] 0
b[5,16] 0
b[5,17] 0
b[5,18] 0
b[5,19] 0
b[5,20] 0
b[5,21] 0
b[5,22] 0
b[5,23] 0
b[5,24] 0
b[5,25] 0
b[5,26] 0
b[5,27] 0
b[6,0] 0
b[6,1] 0
b[6,2] 0
b[6,3] 0
b[6,4] 0
b[6,5] 1
b[6,6] 0
b[6,7] 0
b[6,8] 0
b[6,9] 0
b[6,10] 0
b[6,11] 0
b[6,12] 0
b[6,13] 0
b[6,14] 0
b[6,15] 0
b[6,16] 0
b[6,17] 0
b[6,18] 0
b[6,19] 0
b[6,20] 0
b[6,21] 0
b[6,22] 0
b[6,23] 0
b[6,24] 0
b[6,25] 0
b[6,26] 0
b[6,27] 0
x[0,0,0] 0
x[0,0,1] 0
x[0,0,2] 0
x[0,0,3] 0
x[0,0,4] 0
x[0,0,5] 0
x[0,0,6] 1
x[0,1,0] 0
x[0,1,1] 0
x[0,1,2] 0
x[0,1,3] 0
x[0,1,4] 0
x[0,1,5] 0
x[0,1,6] 0
x[0,2,0] 0
x[0,2,1] 0
x[0,2,2] 0
x[0,2,3] 0
x[0,2,4] 0
x[0,2,5] 0
x[0,2,6] 0
x[0,3,0] 0
x[0,3,1] 0
x[0,3,2] 0
x[0,3,3] 0
x[0,3,4] 0
x[0,3,5] 0
x[0,3,6] 0
x[0,4,0] 0
x[0,4,1] 0
x[0,4,2] 0
x[0,4,3] 0
x[0,4,4] 0
x[0,4,5] 0
x[0,4,6] 0
x[0,5,0] 0
x[0,5,1] 0
x[0,5,2] 0
x[0,5,3] 0
x[0,5,4] 0
x[0,5,5] 0
x[0,5,6] 0
x[0,6,0] 0
x[0,6,1] 0
x[0,6,2] 0
x[0,6,3] 0
x[0,6,4] 0
x[0,6,5] 0
x[0,6,6] 0
x[0,7,0] 0
x[0,7,1] 0
x[0,7,2] 0
x[0,7,3] 0
x[0,7,4] 0
x[0,7,5] 0
x[0,7,6] 0
x[0,8,0] 0
x[0,8,1] 0
x[0,8,2] 0
x[0,8,3] 0
x[0,8,4] 0
x[0,8,5] 0
x[0,8,6] 0
x[0,9,0] 0
x[0,9,1] 0
x[0,9,2] 0
x[0,9,3] 0
x[0,9,4] 0
x[0,9,5] 0
x[0,9,6] 0
x[0,10,0] 0
x[0,10,1] 0
x[0,10,2] 0
x[0,10,3] 0
x[0,10,4] 0
x[0,10,5] 0
x[0,10,6] 0
x[0,11,0] 0
x[0,11,1] 0
x[0,11,2] 0
x[0,11,3] 0
x[0,11,4] 0
x[0,11,5] 0
x[0,11,6] 0
x[0,12,0] 0
x[0,12,1] 0
x[0,12,2] 0
x[0,12,3] 0
x[0,12,4] 0
x[0,12,5] 0
x[0,12,6] 0
x[0,13,0] 0
x[0,13,1] 0
x[0,13,2] 0
x[0,13,3] 0
x[0,13,4] 0
x[0,13,5] 0
x[0,13,6] 0
x[0,14,0] 0
x[0,14,1] 0
x[0,14,2] 0
x[0,14,3] 0
x[0,14,4] 0
x[0,14,5] 0
x[0,14,6] 0
x[0,15,0] 0
x[0,15,1] 0
x[0,15,2] 0
x[0,15,3] 0
x[0,15,4] 0
x[0,15,5] 0
x[0,15,6] 0
x[0,16,0] 0
x[0,16,1] 0
x[0,16,2] 0
x[0,16,3] 0
x[0,16,4] 0
x[0,16,5] 0
x[0,16,6] 0
x[0,17,0] 0
x[0,17,1] 0
x[0,17,2] 0
x[0,17,3] 0
x[0,17,4] 0
x[0,17,5] 0
x[0,17,6] 0
x[0,18,0] 0
x[0,18,1] 0
x[0,18,2] 0
x[0,18,3] 0
x[0,18,4] 0
x[0,18,5] 0
x[0,18,6] 0
x[0,19,0] 0
x[0,19,1] 0
x[0,19,2] 0
x[0,19,3] 0
x[0,19,4] 0
x[0,19,5] 0
x[0,19,6] 0
x[0,20,0] 0
x[0,20,1] 0
x[0,20,2] 0
x[0,20,3] 0
x[0,20,4] 0
x[0,20,5] 0
x[0,20,6] 0
x[0,21,0] 0
x[0,21,1] 0
x[0,21,2] 0
x[0,21,3] 0
x[0,21,4] 0
x[0,21,5] 0
x[0,21,6] 0
x[0,22,0] 0
x[0,22,1] 0
x[0,22,2] 0
x[0,22,3] 0
x[0,22,4] 0
x[0,22,5] 0
x[0,22,6] 0
x[0,23,0] 0
x[0,23,1] 0
x[0,23,2] 0
x[0,23,3] 0
x[0,23,4] 0
x[0,23,5] 0
x[0,23,6] 0
x[0,24,0] 0
x[0,24,1] 0
x[0,24,2] 0
x[0,24,3] 0
x[0,24,4] 0
x[0,24,5] 0
x[0,24,6] 0
x[0,25,0] 0
x[0,25,1] 0
x[0,25,2] 0
x[0,25,3] 0
x[0,25,4] 0
x[0,25,5] 0
x[0,25,6] 0
x[0,26,0] 0
x[0,26,1] 0
x[0,26,2] 0
x[0,26,3] 0
x[0,26,4] 0
x[0,26,5] 0
x[0,26,6] 0
x[0,27,0] 0
x[0,27,1] 0
x[0,27,2] 0
x[0,27,3] 0
x[0,27,4] 0
x[0,27,5] 0
x[0,27,6] 0
x[0,28,0] 0
x[0,28,1] 0
x[0,28,2] 0
x[0,28,3] 0
x[0,28,4] 0
x[0,28,5] 0
x[0,28,6] 0
x[0,29,0] 0
x[0,29,1] 0
x[0,29,2] 0
x[0,29,3] 0
x[0,29,4] 0
x[0,29,5] 0
x[0,29,6] 0
x[0,30,0] 0
x[0,30,1] 0
x[0,30,2] 0
x[0,30,3] 0
x[0,30,4] 0
x[0,30,5] 0
x[0,30,6] 0
x[0,31,0] 0
x[0,31,1] 0
x[0,31,2] 0
x[0,31,3] 0
x[0,31,4] 0
x[0,31,5] 0
x[0,31,6] 0
x[0,32,0] 0
x[0,32,1] 0
x[0,32,2] 0
x[0,32,3] 0
x[0,32,4] 0
x[0,32,5] 0
x[0,32,6] 0
x[0,33,0] 0
x[0,33,1] 0
x[0,33,2] 0
x[0,33,3] 0
x[0,33,4] 0
x[0,33,5] 0
x[0,33,6] 0
x[0,34,0] 0
x[0,34,1] 0
x[0,34,2] 0
x[0,34,3] 0
x[0,34,4] 0
x[0,34,5] 0
x[0,34,6] 0
x[0,35,0] 0
x[0,35,1] 0
x[0,35,2] 0
x[0,35,3] 0
x[0,35,4] 0
x[0,35,5] 0
x[0,35,6] 0
x[0,36,0] 0
x[0,36,1] 0
x[0,36,2] 0
x[0,36,3] 0
x[0,36,4] 0
x[0,36,5] 0
x[0,36,6] 0
x[0,37,0] 0
x[0,37,1] 0
x[0,37,2] 0
x[0,37,3] 0
x[0,37,4] 0
x[0,37,5] 0
x[0,37,6] 0
x[0,38,0] 0
x[0,38,1] 0
x[0,38,2] 0
x[0,38,3] 0
x[0,38,4] 0
x[0,38,5] 0
x[0,38,6] 0
x[0,39,0] 0
x[0,39,1] 0
x[0,39,2] 0
x[0,39,3] 0
x[0,39,4] 0
x[0,39,5] 0
x[0,39,6] 0
x[0,40,0] 0
x[0,40,1] 0
x[0,40,2] 0
x[0,40,3] 0
x[0,40,4] 0
x[0,40,5] 0
x[0,40,6] 0
x[0,41,0] 0
x[0,41,1] 0
x[0,41,2] 0
x[0,41,3] 0
x[0,41,4] 0
x[0,41,5] 0
x[0,41,6] 0
x[0,42,0] 0
x[0,42,1] 0
x[0,42,2] 0
x[0,42,3] 0
x[0,42,4] 0
x[0,42,5] 0
x[0,42,6] 0
x[0,43,0] 0
x[0,43,1] 0
x[0,43,2] 0
x[0,43,3] 0
x[0,43,4] 0
x[0,43,5] 0
x[0,43,6] 0
x[0,44,0] 0
x[0,44,1] 0
x[0,44,2] 0
x[0,44,3] 0
x[0,44,4] 0
x[0,44,5] 0
x[0,44,6] 0
x[0,45,0] 0
x[0,45,1] 0
x[0,45,2] 0
x[0,45,3] 0
x[0,45,4] 0
x[0,45,5] 0
x[0,45,6] 0
x[0,46,0] 0
x[0,46,1] 0
x[0,46,2] 0
x[0,46,3] 0
x[0,46,4] 0
x[0,46,5] 0
x[0,46,6] 0
x[0,47,0] 0
x[0,47,1] 0
x[0,47,2] 0
x[0,47,3] 0
x[0,47,4] 0
x[0,47,5] 0
x[0,47,6] 0
x[0,48,0] 0
x[0,48,1] 0
x[0,48,2] 0
x[0,48,3] 0
x[0,48,4] 0
x[0,48,5] 0
x[0,48,6] 0
x[0,49,0] 0
x[0,49,1] 0
x[0,49,2] 0
x[0,49,3] 0
x[0,49,4] 0
x[0,49,5] 0
x[0,49,6] 0
x[0,50,0] 0
x[0,50,1] 0
x[0,50,2] 0
x[0,50,3] 0
x[0,50,4] 0
x[0,50,5] 0
x[0,50,6] 0
x[0,51,0] 0
x[0,51,1] 0
x[0,51,2] 0
x[0,51,3] 0
x[0,51,4] 0
x[0,51,5] 0
x[0,51,6] 0
x[0,52,0] 0
x[0,52,1] 0
x[0,52,2] 0
x[0,52,3] 0
x[0,52,4] 0
x[0,52,5] 0
x[0,52,6] 0
x[0,53,0] 0
x[0,53,1] 0
x[0,53,2] 0
x[0,53,3] 0
x[0,53,4] 0
x[0,53,5] 0
x[0,53,6] 0
x[0,54,0] 0
x[0,54,1] 0
x[0,54,2] 0
x[0,54,3] 0
x[0,54,4] 0
x[0,54,5] 0
x[0,54,6] 0
x[0,55,0] 0
x[0,55,1] 0
x[0,55,2] 0
x[0,55,3] 0
x[0,55,4] 0
x[0,55,5] 0
x[0,55,6] 0
x[0,56,0] 0
x[0,56,1] 0
x[0,56,2] 0
x[0,56,3] 0
x[0,56,4] 0
x[0,56,5] 0
x[0,56,6] 0
x[0,57,0] 0
x[0,57,1] 0
x[0,57,2] 0
x[0,57,3] 0
x[0,57,4] 0
x[0,57,5] 0
x[0,57,6] 0
x[0,58,0] 0
x[0,58,1] 0
x[0,58,2] 0
x[0,58,3] 0
x[0,58,4] 0
x[0,58,5] 0
x[0,58,6] 0
x[0,59,0] 0
x[0,59,1] 0
x[0,59,2] 0
x[0,59,3] 0
x[0,59,4] 0
x[0,59,5] 0
x[0,59,6] 0
x[0,60,0] 0
x[0,60,1] 0
x[0,60,2] 0
x[0,60,3] 0
x[0,60,4] 0
x[0,60,5] 0
x[0,60,6] 0
x[0,61,0] 0
x[0,61,1] 0
x[0,61,2] 0
x[0,61,3] 0
x[0,61,4] 0
x[0,61,5] 0
x[0,61,6] 0
x[0,62,0] 0
x[0,62,1] 0
x[0,62,2] 0
x[0,62,3] 0
x[0,62,4] 0
x[0,62,5] 0
x[0,62,6] 0
x[0,63,0] 0
x[0,63,1] 0
x[0,63,2] 0
x[0,63,3] 0
x[0,63,4] 0
x[0,63,5] 0
x[0,63,6] 0
x[0,64,0] 0
x[0,64,1] 0
x[0,64,2] 0
x[0,64,3] 0
x[0,64,4] 0
x[0,64,5] 0
x[0,64,6] 0
x[0,65,0] 0
x[0,65,1] 0
x[0,65,2] 0
x[0,65,3] 0
x[0,65,4] 0
x[0,65,5] 0
x[0,65,6] 0
x[0,66,0] 0
x[0,66,1] 0
x[0,66,2] 0
x[0,66,3] 0
x[0,66,4] 0
x[0,66,5] 0
x[0,66,6] 0
x[0,67,0] 0
x[0,67,1] 0
x[0,67,2] 0
x[0,67,3] 0
x[0,67,4] 0
x[0,67,5] 0
x[0,67,6] 0
x[0,68,0] 0
x[0,68,1] 0
x[0,68,2] 0
x[0,68,3] 0
x[0,68,4] 0
x[0,68,5] 0
x[0,68,6] 0
x[0,69,0] 0
x[0,69,1] 0
x[0,69,2] 0
x[0,69,3] 0
x[0,69,4] 0
x[0,69,5] 0
x[0,69,6] 0
x[0,70,0] 0
x[0,70,1] 0
x[0,70,2] 0
x[0,70,3] 0
x[0,70,4] 0
x[0,70,5] 0
x[0,70,6] 0
x[0,71,0] 0
x[0,71,1] 0
x[0,71,2] 0
x[0,71,3] 0
x[0,71,4] 0
x[0,71,5] 0
x[0,71,6] 0
x[0,72,0] 0
x[0,72,1] 0
x[0,72,2] 0
x[0,72,3] 0
x[0,72,4] 0
x[0,72,5] 0
x[0,72,6] 0
x[0,73,0] 0
x[0,73,1] 0
x[0,73,2] 0
x[0,73,3] 0
x[0,73,4] 0
x[0,73,5] 0
x[0,73,6] 0
x[0,74,0] 0
x[0,74,1] 0
x[0,74,2] 0
x[0,74,3] 0
x[0,74,4] 0
x[0,74,5] 0
x[0,74,6] 0
x[0,75,0] 0
x[0,75,1] 0
x[0,75,2] 0
x[0,75,3] 0
x[0,75,4] 0
x[0,75,5] 0
x[0,75,6] 0
x[0,76,0] 0
x[0,76,1] 0
x[0,76,2] 0
x[0,76,3] 0
x[0,76,4] 0
x[0,76,5] 0
x[0,76,6] 0
x[0,77,0] 0
x[0,77,1] 0
x[0,77,2] 0
x[0,77,3] 0
x[0,77,4] 0
x[0,77,5] 0
x[0,77,6] 0
x[0,78,0] 0
x[0,78,1] 0
x[0,78,2] 0
x[0,78,3] 0
x[0,78,4] 0
x[0,78,5] 0
x[0,78,6] 0
x[0,79,0] 0
x[0,79,1] 0
x[0,79,2] 0
x[0,79,3] 0
x[0,79,4] 0
x[0,79,5] 0
x[0,79,6] 0
x[0,80,0] 0
x[0,80,1] 0
x[0,80,2] 0
x[0,80,3] 0
x[0,80,4] 0
x[0,80,5] 0
x[0,80,6] 0
x[0,81,0] 0
x[0,81,1] 0
x[0,81,2] 0
x[0,81,3] 0
x[0,81,4] 0
x[0,81,5] 0
x[0,81,6] 0
x[0,82,0] 0
x[0,82,1] 0
x[0,82,2] 0
x[0,82,3] 0
x[0,82,4] 0
x[0,82,5] 0
x[0,82,6] 0
x[0,83,0] 0
x[0,83,1] 0
x[0,83,2] 0
x[0,83,3] 0
x[0,83,4] 0
x[0,83,5] 0
x[0,83,6] 0
x[0,84,0] 0
x[0,84,1] 0
x[0,84,2] 0
x[0,84,3] 0
x[0,84,4] 0
x[0,84,5] 0
x[0,84,6] 0
x[0,85,0] 0
x[0,85,1] 0
x[0,85,2] 0
x[0,85,3] 0
x[0,85,4] 0
x[0,85,5] 0
x[0,85,6] 0
x[0,86,0] 0
x[0,86,1] 0
x[0,86,2] 0
x[0,86,3] 0
x[0,86,4] 0
x[0,86,5] 0
x[0,86,6] 0
x[0,87,0] 0
x[0,87,1] 0
x[0,87,2] 0
x[0,87,3] 0
x[0,87,4] 0
x[0,87,5] 0
x[0,87,6] 0
x[0,88,0] 0
x[0,88,1] 0
x[0,88,2] 0
x[0,88,3] 0
x[0,88,4] 0
x[0,88,5] 0
x[0,88,6] 0
x[0,89,0] 0
x[0,89,1] 0
x[0,89,2] 0
x[0,89,3] 0
x[0,89,4] 0
x[0,89,5] 0
x[0,89,6] 0
x[0,90,0] 0
x[0,90,1] 0
x[0,90,2] 0
x[0,90,3] 0
x[0,90,4] 0
x[0,90,5] 0
x[0,90,6] 0
x[0,91,0] 0
x[0,91,1] 0
x[0,91,2] 0
x[0,91,3] 0
x[0,91,4] 0
x[0,91,5] 0
x[0,91,6] 0
x[0,92,0] 0
x[0,92,1] 0
x[0,92,2] 0
x[0,92,3] 0
x[0,92,4] 0
x[0,92,5] 0
x[0,92,6] 0
x[0,93,0] 0
x[0,93,1] 0
x[0,93,2] 0
x[0,93,3] 0
x[0,93,4] 0
x[0,93,5] 0
x[0,93,6] 0
x[0,94,0] 0
x[0,94,1] 0
x[0,94,2] 0
x[0,94,3] 0
x[0,94,4] 0
x[0,94,5] 0
x[0,94,6] 0
x[0,95,0] 0
x[0,95,1] 0
x[0,95,2] 0
x[0,95,3] 0
x[0,95,4] 0
x[0,95,5] 0
x[0,95,6] 0
x[0,96,0] 0
x[0,96,1] 0
x[0,96,2] 0
x[0,96,3] 0
x[0,96,4] 0
x[0,96,5] 0
x[0,96,6] 0
x[0,97,0] 0
x[0,97,1] 0
x[0,97,2] 0
x[0,97,3] 0
x[0,97,4] 0
x[0,97,5] 0
x[0,97,6] 0
x[0,98,0] 0
x[0,98,1] 0
x[0,98,2] 0
x[0,98,3] 0
x[0,98,4] 0
x[0,98,5] 0
x[0,98,6] 0
x[0,99,0] 0
x[0,99,1] 0
x[0,99,2] 0
x[0,99,3] 0
x[0,99,4] 0
x[0,99,5] 0
x[0,99,6] 0
x[0,100,0] 0
x[0,100,1] 0
x[0,100,2] 0
x[0,100,3] 0
x[0,100,4] 0
x[0,100,5] 0
x[0,100,6] 0
x[0,101,0] 0
x[0,101,1] 0
x[0,101,2] 0
x[0,101,3] 0
x[0,101,4] 0
x[0,101,5] 0
x[0,101,6] 0
x[0,102,0] 0
x[0,102,1] 0
x[0,102,2] 0
x[0,102,3] 0
x[0,102,4] 0
x[0,102,5] 0
x[0,102,6] 0
x[0,103,0] 0
x[0,103,1] 0
x[0,103,2] 0
x[0,103,3] 0
x[0,103,4] 0
x[0,103,5] 0
x[0,103,6] 0
x[0,104,0] 0
x[0,104,1] 0
x[0,104,2] 0
x[0,104,3] 0
x[0,104,4] 0
x[0,104,5] 0
x[0,104,6] 0
x[0,105,0] 0
x[0,105,1] 0
x[0,105,2] 0
x[0,105,3] 0
x[0,105,4] 0
x[0,105,5] 0
x[0,105,6] 0
x[0,106,0] 0
x[0,106,1] 0
x[0,106,2] 0
x[0,106,3] 0
x[0,106,4] 0
x[0,106,5] 0
x[0,106,6] 0
x[0,107,0] 0
x[0,107,1] 0
x[0,107,2] 0
x[0,107,3] 0
x[0,107,4] 0
x[0,107,5] 0
x[0,107,6] 0
x[0,108,0] 0
x[0,108,1] 0
x[0,108,2] 0
x[0,108,3] 0
x[0,108,4] 0
x[0,108,5] 0
x[0,108,6] 0
x[0,109,0] 0
x[0,109,1] 0
x[0,109,2] 0
x[0,109,3] 0
x[0,109,4] 0
x[0,109,5] 0
x[0,109,6] 0
x[0,110,0] 0
x[0,110,1] 0
x[0,110,2] 0
x[0,110,3] 0
x[0,110,4] 0
x[0,110,5] 0
x[0,110,6] 0
x[0,111,0] 0
x[0,111,1] 0
x[0,111,2] 0
x[0,111,3] 0
x[0,111,4] 0
x[0,111,5] 0
x[0,111,6] 0
x[0,112,0] 0
x[0,112,1] 0
x[0,112,2] 0
x[0,112,3] 0
x[0,112,4] 0
x[0,112,5] 0
x[0,112,6] 0
x[0,113,0] 0
x[0,113,1] 0
x[0,113,2] 0
x[0,113,3] 0
x[0,113,4] 0
x[0,113,5] 0
x[0,113,6] 0
x[0,114,0] 0
x[0,114,1] 0
x[0,114,2] 0
x[0,114,3] 0
x[0,114,4] 0
x[0,114,5] 0
x[0,114,6] 0
x[0,115,0] 0
x[0,115,1] 0
x[0,115,2] 0
x[0,115,3] 0
x[0,115,4] 0
x[0,115,5] 0
x[0,115,6] 0
x[0,116,0] 0
x[0,116,1] 0
x[0,116,2] 0
x[0,116,3] 0
x[0,116,4] 0
x[0,116,5] 0
x[0,116,6] 0
x[0,117,0] 0
x[0,117,1] 0
x[0,117,2] 0
x[0,117,3] 0
x[0,117,4] 0
x[0,117,5] 0
x[0,117,6] 0
x[0,118,0] 0
x[0,118,1] 0
x[0,118,2] 0
x[0,118,3] 0
x[0,118,4] 0
x[0,118,5] 0
x[0,118,6] 0
x[0,119,0] 0
x[0,119,1] 0
x[0,119,2] 0
x[0,119,3] 0
x[0,119,4] 0
x[0,119,5] 0
x[0,119,6] 0
x[0,120,0] 0
x[0,120,1] 0
x[0,120,2] 0
x[0,120,3] 0
x[0,120,4] 0
x[0,120,5] 0
x[0,120,6] 0
x[0,121,0] 0
x[0,121,1] 0
x[0,121,2] 0
x[0,121,3] 0
x[0,121,4] 0
x[0,121,5] 1
x[0,121,6] 0
n[0] 2
